Route #1: 1 42 19 34 15 48 24 35 47 4 21 1
Route #2: 1 17 26 41 12 22 5 32 50 31 3 1
Route #3: 1 39 60 20 53 8 30 38 28 1
Route #4: 1 18 58 14 9 16 36 1
Route #5: 1 46 43 6 55 11 33 51 1
Route #6: 1 44 57 13 52 10 59 1
Route #7: 1 49 23 37 2 56 1
Route #8: 1 7 29 45 54 25 1
Route #9: 1 27 40 1
cost 1638.6374890265245
